\ No. vars=200 No. cons=100 Density= 0.05 Range of costs= 1 to 1
\ Name of file is pk21c.lp
Maximize
obj:    1 x1 +  1 x2 +  1 x3 +  1 x4 +  1 x5 +  1 x6 +  1 x7 +  1 x8 +  1 x9 +  1 x10
 +  1 x11 +  1 x12 +  1 x13 +  1 x14 +  1 x15 +  1 x16 +  1 x17 +  1 x18 +  1 x19 +  1 x20
 +  1 x21 +  1 x22 +  1 x23 +  1 x24 +  1 x25 +  1 x26 +  1 x27 +  1 x28 +  1 x29 +  1 x30
 +  1 x31 +  1 x32 +  1 x33 +  1 x34 +  1 x35 +  1 x36 +  1 x37 +  1 x38 +  1 x39 +  1 x40
 +  1 x41 +  1 x42 +  1 x43 +  1 x44 +  1 x45 +  1 x46 +  1 x47 +  1 x48 +  1 x49 +  1 x50
 +  1 x51 +  1 x52 +  1 x53 +  1 x54 +  1 x55 +  1 x56 +  1 x57 +  1 x58 +  1 x59 +  1 x60
 +  1 x61 +  1 x62 +  1 x63 +  1 x64 +  1 x65 +  1 x66 +  1 x67 +  1 x68 +  1 x69 +  1 x70
 +  1 x71 +  1 x72 +  1 x73 +  1 x74 +  1 x75 +  1 x76 +  1 x77 +  1 x78 +  1 x79 +  1 x80
 +  1 x81 +  1 x82 +  1 x83 +  1 x84 +  1 x85 +  1 x86 +  1 x87 +  1 x88 +  1 x89 +  1 x90
 +  1 x91 +  1 x92 +  1 x93 +  1 x94 +  1 x95 +  1 x96 +  1 x97 +  1 x98 +  1 x99 +  1 x100
 +  1 x101 +  1 x102 +  1 x103 +  1 x104 +  1 x105 +  1 x106 +  1 x107 +  1 x108 +  1 x109 +  1 x110
 +  1 x111 +  1 x112 +  1 x113 +  1 x114 +  1 x115 +  1 x116 +  1 x117 +  1 x118 +  1 x119 +  1 x120
 +  1 x121 +  1 x122 +  1 x123 +  1 x124 +  1 x125 +  1 x126 +  1 x127 +  1 x128 +  1 x129 +  1 x130
 +  1 x131 +  1 x132 +  1 x133 +  1 x134 +  1 x135 +  1 x136 +  1 x137 +  1 x138 +  1 x139 +  1 x140
 +  1 x141 +  1 x142 +  1 x143 +  1 x144 +  1 x145 +  1 x146 +  1 x147 +  1 x148 +  1 x149 +  1 x150
 +  1 x151 +  1 x152 +  1 x153 +  1 x154 +  1 x155 +  1 x156 +  1 x157 +  1 x158 +  1 x159 +  1 x160
 +  1 x161 +  1 x162 +  1 x163 +  1 x164 +  1 x165 +  1 x166 +  1 x167 +  1 x168 +  1 x169 +  1 x170
 +  1 x171 +  1 x172 +  1 x173 +  1 x174 +  1 x175 +  1 x176 +  1 x177 +  1 x178 +  1 x179 +  1 x180
 +  1 x181 +  1 x182 +  1 x183 +  1 x184 +  1 x185 +  1 x186 +  1 x187 +  1 x188 +  1 x189 +  1 x190
 +  1 x191 +  1 x192 +  1 x193 +  1 x194 +  1 x195 +  1 x196 +  1 x197 +  1 x198 +  1 x199 +  1 x200
Subject To
c1:   x12 + x29 + x43 + x44 + x60 + x90 + x94 + x96 + x100 + x126
 + x174 + x190 + x199  <= 1
c2:   x4 + x22 + x70 + x73 + x80 + x88 + x100 + x192  <= 1
c3:   x77 + x103 + x110 + x118 + x143 + x174 + x185 + x193  <= 1
c4:   x37 + x44 + x64 + x67 + x76 + x79 + x112 + x196  <= 1
c5:   x6 + x37 + x53 + x65 + x86 + x100 + x109 + x145 + x157 + x159
 + x169 + x192 + x194  <= 1
c6:   x4 + x20 + x33 + x77 + x86 + x105 + x120 + x152 + x161 + x186  <= 1
c7:   x33 + x107  <= 1
c8:   x48 + x112 + x128 + x139 + x191  <= 1
c9:   x3 + x68 + x73 + x109 + x153 + x158 + x192  <= 1
c10:   x12 + x35 + x56 + x71 + x83 + x88 + x98 + x107 + x109 + x126
 + x138 + x158 + x161 + x188 + x194  <= 1
c11:   x40 + x51 + x66 + x80 + x81 + x94 + x120 + x123 + x180 + x197  <= 1
c12:   x4 + x23 + x30 + x34 + x48 + x52 + x54 + x75 + x77 + x83
 + x94 + x107 + x114  <= 1
c13:   x9 + x11 + x17 + x21 + x65 + x86 + x119 + x135 + x155 + x195  <= 1
c14:   x35 + x37 + x39 + x43 + x69 + x74 + x85 + x97 + x114 + x136
 + x139 + x146 + x161 + x170 + x195  <= 1
c15:   x6 + x32 + x60 + x61 + x111 + x126 + x147 + x157 + x163 + x166
 + x189 + x194  <= 1
c16:   x9 + x34 + x49 + x52 + x58 + x88 + x100 + x102 + x105 + x149  <= 1
c17:   x14 + x26 + x41 + x47 + x88 + x100 + x182  <= 1
c18:   x21 + x23 + x40 + x63 + x79 + x93 + x112 + x130 + x135 + x140
 + x143 + x147 + x157 + x195 + x200  <= 1
c19:   x39 + x91 + x96 + x97 + x143 + x157 + x173 + x189 + x191  <= 1
c20:   x9 + x45 + x47 + x82 + x94 + x100 + x102 + x109 + x112 + x117
 + x126 + x169 + x171 + x177 + x183  <= 1
c21:   x5 + x20 + x32 + x59 + x139 + x169 + x171  <= 1
c22:   x3 + x9 + x27 + x42 + x45 + x81 + x88 + x147 + x148 + x197  <= 1
c23:   x55 + x56 + x59 + x116 + x119 + x161 + x173 + x179  <= 1
c24:   x32 + x76 + x175 + x187 + x198  <= 1
c25:   x7 + x64 + x68 + x91 + x101 + x128 + x146 + x153 + x167 + x172
 + x187 + x193  <= 1
c26:   x5 + x6 + x25 + x28 + x40 + x55 + x79 + x96 + x118 + x132
 + x177  <= 1
c27:   x11 + x83 + x87 + x111 + x113 + x115 + x129  <= 1
c28:   x4 + x12 + x92 + x100 + x171 + x189 + x197  <= 1
c29:   x7 + x53 + x55 + x66 + x80 + x91 + x112 + x139 + x149 + x170
 + x172  <= 1
c30:   x18 + x62 + x79 + x90  <= 1
c31:   x6 + x11 + x25 + x65 + x80 + x94 + x102 + x163 + x173  <= 1
c32:   x9 + x10 + x59 + x113 + x127 + x142 + x143 + x170 + x192  <= 1
c33:   x10 + x30 + x36 + x56 + x97 + x114 + x119 + x125 + x144 + x160
 + x166 + x193  <= 1
c34:   x10 + x37 + x42 + x65 + x72 + x85 + x94 + x105 + x165 + x187
 + x197  <= 1
c35:   x1 + x41 + x94 + x150 + x177  <= 1
c36:   x27 + x28 + x57 + x61 + x68 + x120 + x124 + x162 + x175  <= 1
c37:   x27 + x82 + x93 + x137 + x174 + x184  <= 1
c38:   x15 + x27 + x34 + x42 + x48 + x93 + x94 + x129 + x133 + x152
 + x188 + x197 + x199  <= 1
c39:   x73 + x98 + x105 + x106 + x108 + x167 + x169 + x171 + x199  <= 1
c40:   x19 + x106 + x122 + x154 + x160  <= 1
c41:   x3 + x6 + x64 + x75 + x93 + x106 + x108 + x168 + x175 + x185
 + x186  <= 1
c42:   x11 + x25 + x118 + x159 + x189  <= 1
c43:   x12 + x41 + x95 + x123 + x150 + x153 + x161 + x168 + x170 + x185  <= 1
c44:   x36 + x81 + x112 + x115 + x117 + x124 + x137 + x139 + x140 + x170
 + x186  <= 1
c45:   x34 + x71 + x104 + x127 + x137 + x141 + x142 + x188 + x189  <= 1
c46:   x13 + x58 + x109 + x114 + x182 + x197  <= 1
c47:   x26 + x27 + x77 + x85 + x89 + x110 + x159 + x166 + x167 + x179
 + x199  <= 1
c48:   x1 + x25 + x43 + x49 + x59 + x107 + x108 + x116 + x121 + x126
 + x147  <= 1
c49:   x14 + x30 + x36 + x75 + x86 + x93 + x102 + x140 + x149 + x154
 + x155 + x168 + x197  <= 1
c50:   x4 + x38 + x106 + x150 + x151 + x179  <= 1
c51:   x2 + x9 + x11 + x19 + x27 + x36 + x60 + x113 + x182 + x184
 + x200  <= 1
c52:   x24 + x33 + x38 + x48 + x49 + x74 + x104 + x132 + x179  <= 1
c53:   x2 + x26 + x36 + x44 + x46 + x71 + x81 + x94 + x97 + x126  <= 1
c54:   x7 + x29 + x62 + x65 + x83 + x87 + x113 + x157 + x177 + x190
 + x192  <= 1
c55:   x1 + x42 + x43 + x58 + x85 + x86 + x95 + x132 + x152 + x154
 + x155 + x164 + x167  <= 1
c56:   x3 + x11 + x20 + x34 + x49 + x75 + x102 + x103 + x129 + x133
 + x182 + x183 + x198  <= 1
c57:   x36 + x52 + x59 + x78 + x99 + x113 + x115 + x134 + x155 + x194
 + x196  <= 1
c58:   x15 + x16 + x62 + x68 + x75 + x102 + x121 + x122 + x157 + x171
 + x194  <= 1
c59:   x35 + x50 + x121 + x162 + x195  <= 1
c60:   x6 + x9 + x37 + x42 + x61 + x62 + x84 + x116 + x119 + x123
 + x128 + x130 + x188  <= 1
c61:   x11 + x26 + x48 + x55 + x66 + x78 + x128 + x173 + x185  <= 1
c62:   x10 + x49 + x100 + x105 + x140 + x151 + x178 + x181  <= 1
c63:   x19 + x25 + x38 + x105 + x121 + x148 + x173  <= 1
c64:   x27 + x48 + x54 + x62 + x64 + x72 + x106 + x127 + x128 + x147
 + x173  <= 1
c65:   x6 + x52 + x61 + x73 + x82 + x107 + x191  <= 1
c66:   x5 + x29 + x42 + x99 + x101 + x105 + x132 + x149 + x184 + x192
 + x194  <= 1
c67:   x3 + x23 + x43 + x79 + x89 + x102 + x108 + x112 + x117 + x151
 + x158 + x164  <= 1
c68:   x15 + x26 + x32 + x33 + x34 + x40 + x54 + x55 + x99 + x113
 + x120 + x175 + x190 + x191 + x193 + x199  <= 1
c69:   x7 + x13 + x17 + x63 + x125 + x132 + x174 + x178  <= 1
c70:   x70 + x71 + x94 + x121 + x141 + x167 + x170 + x185 + x190  <= 1
c71:   x15 + x44 + x66 + x67 + x83 + x115 + x159 + x161 + x162 + x170
 + x197  <= 1
c72:   x22 + x30 + x31 + x52 + x129 + x157  <= 1
c73:   x10 + x23 + x63 + x77 + x108 + x120 + x131 + x171 + x183 + x186
 + x192 + x197  <= 1
c74:   x34 + x51 + x118 + x133 + x170 + x179  <= 1
c75:   x16 + x26 + x40 + x89 + x92 + x111 + x144 + x145  <= 1
c76:   x36 + x54 + x68 + x74 + x85 + x101 + x137 + x170  <= 1
c77:   x4 + x6 + x65 + x82 + x86 + x88 + x123 + x142 + x168 + x174
 + x192 + x197  <= 1
c78:   x26 + x56 + x123 + x128 + x139 + x152 + x175 + x176 + x190 + x196
 + x200  <= 1
c79:   x25 + x27 + x50 + x96 + x111 + x149  <= 1
c80:   x29 + x79 + x93 + x112 + x125 + x157  <= 1
c81:   x4 + x23 + x27 + x29 + x74 + x78 + x79 + x110 + x117 + x165  <= 1
c82:   x19 + x26 + x34 + x44 + x59 + x81 + x83 + x89 + x90 + x125
 + x142  <= 1
c83:   x5 + x9 + x12 + x15 + x28 + x38 + x44 + x45 + x68 + x84
 + x85 + x97 + x141 + x167 + x171 + x177 + x186 + x195 + x199  <= 1
c84:   x29 + x87 + x131 + x137 + x161 + x165 + x175 + x176  <= 1
c85:   x14 + x45 + x49 + x52 + x135 + x153 + x157 + x186 + x199  <= 1
c86:   x8 + x28 + x30 + x44 + x64 + x84 + x109 + x132 + x139 + x162  <= 1
c87:   x11 + x18 + x35 + x42 + x57 + x87 + x109 + x113 + x130 + x134
 + x139 + x151 + x154  <= 1
c88:   x12 + x24 + x41 + x44 + x77 + x126 + x160 + x172  <= 1
c89:   x4 + x5 + x10 + x16 + x41 + x69 + x81 + x102 + x148 + x168
 + x173 + x177 + x187  <= 1
c90:   x41 + x50 + x62 + x76 + x78 + x96 + x177 + x178  <= 1
c91:   x1 + x33 + x38 + x42 + x117 + x132 + x149 + x153 + x156  <= 1
c92:   x8 + x22 + x29 + x48 + x60 + x85 + x88 + x118 + x139 + x142
 + x146 + x159 + x171 + x173 + x180  <= 1
c93:   x1 + x18 + x28 + x44 + x46 + x47 + x67 + x75 + x123 + x130
 + x141 + x148 + x178 + x180  <= 1
c94:   x9 + x12 + x29 + x37 + x46 + x109 + x127 + x129 + x131 + x133
 + x153 + x192 + x197 + x198 + x199  <= 1
c95:   x40 + x64 + x73 + x113 + x119 + x124 + x145 + x185  <= 1
c96:   x29 + x43 + x56 + x62 + x65 + x100 + x106 + x116 + x118 + x128
 + x142 + x146 + x166 + x174 + x192 + x193 + x199  <= 1
c97:   x56 + x70 + x82 + x133 + x151 + x156 + x179 + x198  <= 1
c98:   x20 + x22 + x47 + x67 + x82 + x90 + x108 + x141 + x167 + x169
 + x179 + x192 + x197  <= 1
c99:   x72 + x107 + x115 + x129 + x135 + x166 + x168  <= 1
c100:   x63 + x86 + x130 + x150 + x183  <= 1
INTEGERS
 x1
 x2
 x3
 x4
 x5
 x6
 x7
 x8
 x9
 x10
 x11
 x12
 x13
 x14
 x15
 x16
 x17
 x18
 x19
 x20
 x21
 x22
 x23
 x24
 x25
 x26
 x27
 x28
 x29
 x30
 x31
 x32
 x33
 x34
 x35
 x36
 x37
 x38
 x39
 x40
 x41
 x42
 x43
 x44
 x45
 x46
 x47
 x48
 x49
 x50
 x51
 x52
 x53
 x54
 x55
 x56
 x57
 x58
 x59
 x60
 x61
 x62
 x63
 x64
 x65
 x66
 x67
 x68
 x69
 x70
 x71
 x72
 x73
 x74
 x75
 x76
 x77
 x78
 x79
 x80
 x81
 x82
 x83
 x84
 x85
 x86
 x87
 x88
 x89
 x90
 x91
 x92
 x93
 x94
 x95
 x96
 x97
 x98
 x99
 x100
 x101
 x102
 x103
 x104
 x105
 x106
 x107
 x108
 x109
 x110
 x111
 x112
 x113
 x114
 x115
 x116
 x117
 x118
 x119
 x120
 x121
 x122
 x123
 x124
 x125
 x126
 x127
 x128
 x129
 x130
 x131
 x132
 x133
 x134
 x135
 x136
 x137
 x138
 x139
 x140
 x141
 x142
 x143
 x144
 x145
 x146
 x147
 x148
 x149
 x150
 x151
 x152
 x153
 x154
 x155
 x156
 x157
 x158
 x159
 x160
 x161
 x162
 x163
 x164
 x165
 x166
 x167
 x168
 x169
 x170
 x171
 x172
 x173
 x174
 x175
 x176
 x177
 x178
 x179
 x180
 x181
 x182
 x183
 x184
 x185
 x186
 x187
 x188
 x189
 x190
 x191
 x192
 x193
 x194
 x195
 x196
 x197
 x198
 x199
 x200
End
